(declare-fun bvlambda_52_ ()Bool         )
(declare-fun a165 () (Array (_ BitVec 1) (_ BitVec 3)))
(assert
(let (($e51 (_ bv6 3)))
(let (($e307 (store a165 true        $e51 )))
(let (($e331 (concat false false              )))
(let (($e332 (concat $e331 false       )))
(let (($e333 (store $e307 bvlambda_52_ $e332)))
(let (($e522 (select $e333 true       )))
                  (bvult $e522 $e51 )
                                                                                                                                                                                                                                                                                                                                                                                                                                                                                                                                                                                                                                                                                                                                                                                                                                                                                                                                                                                                                                                                                                                                                                                                                                                                                                                                                                                                                                                                                                                                                                                                                                                                                                                                                                                                                                                                                                                                                                                                                                                                                                                                                                                                                                                                                                                                                                                                                             )                                                                                                                                                                                            )))                       )                                                                                                                                                                                                     )                                                  )
